c 
c MolecularSimulation 1.0.2
c Simulation written: Tue Aug 14 15:19:24 2012
c Test: Ogihara-Ray
c Input: ./data/testCNF/SWEEP_R10_K3_N20_M184_S002.cnf
c 
s UNSATISFIABLE
v 0
c algorithmType:  Ogihara-Ray
c algorithmTime:  0.038736
c solutionMemory: 0
c mixCount:       440
c extractCount:   552
c appendCount:    36
c splitCount:     18
c spliceCount:    0
c purifyCount:    202
c numVar:         20
c numClause:      184
c 
